p cnf 405 2250
1 2 3 4 5 6 7 8 9 10 11 12 13 14  0
-15 1 0
15 -1 0
-16 15 2 0
16 -15 0
16 -2 0
-17 16 3 0
17 -16 0
17 -3 0
-18 17 4 0
18 -17 0
18 -4 0
-19 18 5 0
19 -18 0
19 -5 0
-20 19 6 0
20 -19 0
20 -6 0
-21 20 7 0
21 -20 0
21 -7 0
-22 21 8 0
22 -21 0
22 -8 0
-23 22 9 0
23 -22 0
23 -9 0
-24 23 10 0
24 -23 0
24 -10 0
-25 24 11 0
25 -24 0
25 -11 0
-26 25 12 0
26 -25 0
26 -12 0
-27 26 13 0
27 -26 0
27 -13 0
-15 -2 0
-16 -3 0
-17 -4 0
-18 -5 0
-19 -6 0
-20 -7 0
-21 -8 0
-22 -9 0
-23 -10 0
-24 -11 0
-25 -12 0
-26 -13 0
-27 -14 0
28 29 30 31 32 33 34 35 36 37 38 39 40 41  0
-42 28 0
42 -28 0
-43 42 29 0
43 -42 0
43 -29 0
-44 43 30 0
44 -43 0
44 -30 0
-45 44 31 0
45 -44 0
45 -31 0
-46 45 32 0
46 -45 0
46 -32 0
-47 46 33 0
47 -46 0
47 -33 0
-48 47 34 0
48 -47 0
48 -34 0
-49 48 35 0
49 -48 0
49 -35 0
-50 49 36 0
50 -49 0
50 -36 0
-51 50 37 0
51 -50 0
51 -37 0
-52 51 38 0
52 -51 0
52 -38 0
-53 52 39 0
53 -52 0
53 -39 0
-54 53 40 0
54 -53 0
54 -40 0
-42 -29 0
-43 -30 0
-44 -31 0
-45 -32 0
-46 -33 0
-47 -34 0
-48 -35 0
-49 -36 0
-50 -37 0
-51 -38 0
-52 -39 0
-53 -40 0
-54 -41 0
55 56 57 58 59 60 61 62 63 64 65 66 67 68  0
-69 55 0
69 -55 0
-70 69 56 0
70 -69 0
70 -56 0
-71 70 57 0
71 -70 0
71 -57 0
-72 71 58 0
72 -71 0
72 -58 0
-73 72 59 0
73 -72 0
73 -59 0
-74 73 60 0
74 -73 0
74 -60 0
-75 74 61 0
75 -74 0
75 -61 0
-76 75 62 0
76 -75 0
76 -62 0
-77 76 63 0
77 -76 0
77 -63 0
-78 77 64 0
78 -77 0
78 -64 0
-79 78 65 0
79 -78 0
79 -65 0
-80 79 66 0
80 -79 0
80 -66 0
-81 80 67 0
81 -80 0
81 -67 0
-69 -56 0
-70 -57 0
-71 -58 0
-72 -59 0
-73 -60 0
-74 -61 0
-75 -62 0
-76 -63 0
-77 -64 0
-78 -65 0
-79 -66 0
-80 -67 0
-81 -68 0
82 83 84 85 86 87 88 89 90 91 92 93 94 95  0
-96 82 0
96 -82 0
-97 96 83 0
97 -96 0
97 -83 0
-98 97 84 0
98 -97 0
98 -84 0
-99 98 85 0
99 -98 0
99 -85 0
-100 99 86 0
100 -99 0
100 -86 0
-101 100 87 0
101 -100 0
101 -87 0
-102 101 88 0
102 -101 0
102 -88 0
-103 102 89 0
103 -102 0
103 -89 0
-104 103 90 0
104 -103 0
104 -90 0
-105 104 91 0
105 -104 0
105 -91 0
-106 105 92 0
106 -105 0
106 -92 0
-107 106 93 0
107 -106 0
107 -93 0
-108 107 94 0
108 -107 0
108 -94 0
-96 -83 0
-97 -84 0
-98 -85 0
-99 -86 0
-100 -87 0
-101 -88 0
-102 -89 0
-103 -90 0
-104 -91 0
-105 -92 0
-106 -93 0
-107 -94 0
-108 -95 0
109 110 111 112 113 114 115 116 117 118 119 120 121 122  0
-123 109 0
123 -109 0
-124 123 110 0
124 -123 0
124 -110 0
-125 124 111 0
125 -124 0
125 -111 0
-126 125 112 0
126 -125 0
126 -112 0
-127 126 113 0
127 -126 0
127 -113 0
-128 127 114 0
128 -127 0
128 -114 0
-129 128 115 0
129 -128 0
129 -115 0
-130 129 116 0
130 -129 0
130 -116 0
-131 130 117 0
131 -130 0
131 -117 0
-132 131 118 0
132 -131 0
132 -118 0
-133 132 119 0
133 -132 0
133 -119 0
-134 133 120 0
134 -133 0
134 -120 0
-135 134 121 0
135 -134 0
135 -121 0
-123 -110 0
-124 -111 0
-125 -112 0
-126 -113 0
-127 -114 0
-128 -115 0
-129 -116 0
-130 -117 0
-131 -118 0
-132 -119 0
-133 -120 0
-134 -121 0
-135 -122 0
136 137 138 139 140 141 142 143 144 145 146 147 148 149  0
-150 136 0
150 -136 0
-151 150 137 0
151 -150 0
151 -137 0
-152 151 138 0
152 -151 0
152 -138 0
-153 152 139 0
153 -152 0
153 -139 0
-154 153 140 0
154 -153 0
154 -140 0
-155 154 141 0
155 -154 0
155 -141 0
-156 155 142 0
156 -155 0
156 -142 0
-157 156 143 0
157 -156 0
157 -143 0
-158 157 144 0
158 -157 0
158 -144 0
-159 158 145 0
159 -158 0
159 -145 0
-160 159 146 0
160 -159 0
160 -146 0
-161 160 147 0
161 -160 0
161 -147 0
-162 161 148 0
162 -161 0
162 -148 0
-150 -137 0
-151 -138 0
-152 -139 0
-153 -140 0
-154 -141 0
-155 -142 0
-156 -143 0
-157 -144 0
-158 -145 0
-159 -146 0
-160 -147 0
-161 -148 0
-162 -149 0
163 164 165 166 167 168 169 170 171 172 173 174 175 176  0
-177 163 0
177 -163 0
-178 177 164 0
178 -177 0
178 -164 0
-179 178 165 0
179 -178 0
179 -165 0
-180 179 166 0
180 -179 0
180 -166 0
-181 180 167 0
181 -180 0
181 -167 0
-182 181 168 0
182 -181 0
182 -168 0
-183 182 169 0
183 -182 0
183 -169 0
-184 183 170 0
184 -183 0
184 -170 0
-185 184 171 0
185 -184 0
185 -171 0
-186 185 172 0
186 -185 0
186 -172 0
-187 186 173 0
187 -186 0
187 -173 0
-188 187 174 0
188 -187 0
188 -174 0
-189 188 175 0
189 -188 0
189 -175 0
-177 -164 0
-178 -165 0
-179 -166 0
-180 -167 0
-181 -168 0
-182 -169 0
-183 -170 0
-184 -171 0
-185 -172 0
-186 -173 0
-187 -174 0
-188 -175 0
-189 -176 0
190 191 192 193 194 195 196 197 198 199 200 201 202 203  0
-204 190 0
204 -190 0
-205 204 191 0
205 -204 0
205 -191 0
-206 205 192 0
206 -205 0
206 -192 0
-207 206 193 0
207 -206 0
207 -193 0
-208 207 194 0
208 -207 0
208 -194 0
-209 208 195 0
209 -208 0
209 -195 0
-210 209 196 0
210 -209 0
210 -196 0
-211 210 197 0
211 -210 0
211 -197 0
-212 211 198 0
212 -211 0
212 -198 0
-213 212 199 0
213 -212 0
213 -199 0
-214 213 200 0
214 -213 0
214 -200 0
-215 214 201 0
215 -214 0
215 -201 0
-216 215 202 0
216 -215 0
216 -202 0
-204 -191 0
-205 -192 0
-206 -193 0
-207 -194 0
-208 -195 0
-209 -196 0
-210 -197 0
-211 -198 0
-212 -199 0
-213 -200 0
-214 -201 0
-215 -202 0
-216 -203 0
217 218 219 220 221 222 223 224 225 226 227 228 229 230  0
-231 217 0
231 -217 0
-232 231 218 0
232 -231 0
232 -218 0
-233 232 219 0
233 -232 0
233 -219 0
-234 233 220 0
234 -233 0
234 -220 0
-235 234 221 0
235 -234 0
235 -221 0
-236 235 222 0
236 -235 0
236 -222 0
-237 236 223 0
237 -236 0
237 -223 0
-238 237 224 0
238 -237 0
238 -224 0
-239 238 225 0
239 -238 0
239 -225 0
-240 239 226 0
240 -239 0
240 -226 0
-241 240 227 0
241 -240 0
241 -227 0
-242 241 228 0
242 -241 0
242 -228 0
-243 242 229 0
243 -242 0
243 -229 0
-231 -218 0
-232 -219 0
-233 -220 0
-234 -221 0
-235 -222 0
-236 -223 0
-237 -224 0
-238 -225 0
-239 -226 0
-240 -227 0
-241 -228 0
-242 -229 0
-243 -230 0
244 245 246 247 248 249 250 251 252 253 254 255 256 257  0
-258 244 0
258 -244 0
-259 258 245 0
259 -258 0
259 -245 0
-260 259 246 0
260 -259 0
260 -246 0
-261 260 247 0
261 -260 0
261 -247 0
-262 261 248 0
262 -261 0
262 -248 0
-263 262 249 0
263 -262 0
263 -249 0
-264 263 250 0
264 -263 0
264 -250 0
-265 264 251 0
265 -264 0
265 -251 0
-266 265 252 0
266 -265 0
266 -252 0
-267 266 253 0
267 -266 0
267 -253 0
-268 267 254 0
268 -267 0
268 -254 0
-269 268 255 0
269 -268 0
269 -255 0
-270 269 256 0
270 -269 0
270 -256 0
-258 -245 0
-259 -246 0
-260 -247 0
-261 -248 0
-262 -249 0
-263 -250 0
-264 -251 0
-265 -252 0
-266 -253 0
-267 -254 0
-268 -255 0
-269 -256 0
-270 -257 0
271 272 273 274 275 276 277 278 279 280 281 282 283 284  0
-285 271 0
285 -271 0
-286 285 272 0
286 -285 0
286 -272 0
-287 286 273 0
287 -286 0
287 -273 0
-288 287 274 0
288 -287 0
288 -274 0
-289 288 275 0
289 -288 0
289 -275 0
-290 289 276 0
290 -289 0
290 -276 0
-291 290 277 0
291 -290 0
291 -277 0
-292 291 278 0
292 -291 0
292 -278 0
-293 292 279 0
293 -292 0
293 -279 0
-294 293 280 0
294 -293 0
294 -280 0
-295 294 281 0
295 -294 0
295 -281 0
-296 295 282 0
296 -295 0
296 -282 0
-297 296 283 0
297 -296 0
297 -283 0
-285 -272 0
-286 -273 0
-287 -274 0
-288 -275 0
-289 -276 0
-290 -277 0
-291 -278 0
-292 -279 0
-293 -280 0
-294 -281 0
-295 -282 0
-296 -283 0
-297 -284 0
298 299 300 301 302 303 304 305 306 307 308 309 310 311  0
-312 298 0
312 -298 0
-313 312 299 0
313 -312 0
313 -299 0
-314 313 300 0
314 -313 0
314 -300 0
-315 314 301 0
315 -314 0
315 -301 0
-316 315 302 0
316 -315 0
316 -302 0
-317 316 303 0
317 -316 0
317 -303 0
-318 317 304 0
318 -317 0
318 -304 0
-319 318 305 0
319 -318 0
319 -305 0
-320 319 306 0
320 -319 0
320 -306 0
-321 320 307 0
321 -320 0
321 -307 0
-322 321 308 0
322 -321 0
322 -308 0
-323 322 309 0
323 -322 0
323 -309 0
-324 323 310 0
324 -323 0
324 -310 0
-312 -299 0
-313 -300 0
-314 -301 0
-315 -302 0
-316 -303 0
-317 -304 0
-318 -305 0
-319 -306 0
-320 -307 0
-321 -308 0
-322 -309 0
-323 -310 0
-324 -311 0
325 326 327 328 329 330 331 332 333 334 335 336 337 338  0
-339 325 0
339 -325 0
-340 339 326 0
340 -339 0
340 -326 0
-341 340 327 0
341 -340 0
341 -327 0
-342 341 328 0
342 -341 0
342 -328 0
-343 342 329 0
343 -342 0
343 -329 0
-344 343 330 0
344 -343 0
344 -330 0
-345 344 331 0
345 -344 0
345 -331 0
-346 345 332 0
346 -345 0
346 -332 0
-347 346 333 0
347 -346 0
347 -333 0
-348 347 334 0
348 -347 0
348 -334 0
-349 348 335 0
349 -348 0
349 -335 0
-350 349 336 0
350 -349 0
350 -336 0
-351 350 337 0
351 -350 0
351 -337 0
-339 -326 0
-340 -327 0
-341 -328 0
-342 -329 0
-343 -330 0
-344 -331 0
-345 -332 0
-346 -333 0
-347 -334 0
-348 -335 0
-349 -336 0
-350 -337 0
-351 -338 0
352 353 354 355 356 357 358 359 360 361 362 363 364 365  0
-366 352 0
366 -352 0
-367 366 353 0
367 -366 0
367 -353 0
-368 367 354 0
368 -367 0
368 -354 0
-369 368 355 0
369 -368 0
369 -355 0
-370 369 356 0
370 -369 0
370 -356 0
-371 370 357 0
371 -370 0
371 -357 0
-372 371 358 0
372 -371 0
372 -358 0
-373 372 359 0
373 -372 0
373 -359 0
-374 373 360 0
374 -373 0
374 -360 0
-375 374 361 0
375 -374 0
375 -361 0
-376 375 362 0
376 -375 0
376 -362 0
-377 376 363 0
377 -376 0
377 -363 0
-378 377 364 0
378 -377 0
378 -364 0
-366 -353 0
-367 -354 0
-368 -355 0
-369 -356 0
-370 -357 0
-371 -358 0
-372 -359 0
-373 -360 0
-374 -361 0
-375 -362 0
-376 -363 0
-377 -364 0
-378 -365 0
379 380 381 382 383 384 385 386 387 388 389 390 391 392  0
-393 379 0
393 -379 0
-394 393 380 0
394 -393 0
394 -380 0
-395 394 381 0
395 -394 0
395 -381 0
-396 395 382 0
396 -395 0
396 -382 0
-397 396 383 0
397 -396 0
397 -383 0
-398 397 384 0
398 -397 0
398 -384 0
-399 398 385 0
399 -398 0
399 -385 0
-400 399 386 0
400 -399 0
400 -386 0
-401 400 387 0
401 -400 0
401 -387 0
-402 401 388 0
402 -401 0
402 -388 0
-403 402 389 0
403 -402 0
403 -389 0
-404 403 390 0
404 -403 0
404 -390 0
-405 404 391 0
405 -404 0
405 -391 0
-393 -380 0
-394 -381 0
-395 -382 0
-396 -383 0
-397 -384 0
-398 -385 0
-399 -386 0
-400 -387 0
-401 -388 0
-402 -389 0
-403 -390 0
-404 -391 0
-405 -392 0
-28 -1 0
-55 -1 0
-55 -28 0
-82 -1 0
-82 -28 0
-82 -55 0
-109 -1 0
-109 -28 0
-109 -55 0
-109 -82 0
-136 -1 0
-136 -28 0
-136 -55 0
-136 -82 0
-136 -109 0
-163 -1 0
-163 -28 0
-163 -55 0
-163 -82 0
-163 -109 0
-163 -136 0
-190 -1 0
-190 -28 0
-190 -55 0
-190 -82 0
-190 -109 0
-190 -136 0
-190 -163 0
-217 -1 0
-217 -28 0
-217 -55 0
-217 -82 0
-217 -109 0
-217 -136 0
-217 -163 0
-217 -190 0
-244 -1 0
-244 -28 0
-244 -55 0
-244 -82 0
-244 -109 0
-244 -136 0
-244 -163 0
-244 -190 0
-244 -217 0
-271 -1 0
-271 -28 0
-271 -55 0
-271 -82 0
-271 -109 0
-271 -136 0
-271 -163 0
-271 -190 0
-271 -217 0
-271 -244 0
-298 -1 0
-298 -28 0
-298 -55 0
-298 -82 0
-298 -109 0
-298 -136 0
-298 -163 0
-298 -190 0
-298 -217 0
-298 -244 0
-298 -271 0
-325 -1 0
-325 -28 0
-325 -55 0
-325 -82 0
-325 -109 0
-325 -136 0
-325 -163 0
-325 -190 0
-325 -217 0
-325 -244 0
-325 -271 0
-325 -298 0
-352 -1 0
-352 -28 0
-352 -55 0
-352 -82 0
-352 -109 0
-352 -136 0
-352 -163 0
-352 -190 0
-352 -217 0
-352 -244 0
-352 -271 0
-352 -298 0
-352 -325 0
-379 -1 0
-379 -28 0
-379 -55 0
-379 -82 0
-379 -109 0
-379 -136 0
-379 -163 0
-379 -190 0
-379 -217 0
-379 -244 0
-379 -271 0
-379 -298 0
-379 -325 0
-379 -352 0
-29 -2 0
-56 -2 0
-56 -29 0
-83 -2 0
-83 -29 0
-83 -56 0
-110 -2 0
-110 -29 0
-110 -56 0
-110 -83 0
-137 -2 0
-137 -29 0
-137 -56 0
-137 -83 0
-137 -110 0
-164 -2 0
-164 -29 0
-164 -56 0
-164 -83 0
-164 -110 0
-164 -137 0
-191 -2 0
-191 -29 0
-191 -56 0
-191 -83 0
-191 -110 0
-191 -137 0
-191 -164 0
-218 -2 0
-218 -29 0
-218 -56 0
-218 -83 0
-218 -110 0
-218 -137 0
-218 -164 0
-218 -191 0
-245 -2 0
-245 -29 0
-245 -56 0
-245 -83 0
-245 -110 0
-245 -137 0
-245 -164 0
-245 -191 0
-245 -218 0
-272 -2 0
-272 -29 0
-272 -56 0
-272 -83 0
-272 -110 0
-272 -137 0
-272 -164 0
-272 -191 0
-272 -218 0
-272 -245 0
-299 -2 0
-299 -29 0
-299 -56 0
-299 -83 0
-299 -110 0
-299 -137 0
-299 -164 0
-299 -191 0
-299 -218 0
-299 -245 0
-299 -272 0
-326 -2 0
-326 -29 0
-326 -56 0
-326 -83 0
-326 -110 0
-326 -137 0
-326 -164 0
-326 -191 0
-326 -218 0
-326 -245 0
-326 -272 0
-326 -299 0
-353 -2 0
-353 -29 0
-353 -56 0
-353 -83 0
-353 -110 0
-353 -137 0
-353 -164 0
-353 -191 0
-353 -218 0
-353 -245 0
-353 -272 0
-353 -299 0
-353 -326 0
-380 -2 0
-380 -29 0
-380 -56 0
-380 -83 0
-380 -110 0
-380 -137 0
-380 -164 0
-380 -191 0
-380 -218 0
-380 -245 0
-380 -272 0
-380 -299 0
-380 -326 0
-380 -353 0
-30 -3 0
-57 -3 0
-57 -30 0
-84 -3 0
-84 -30 0
-84 -57 0
-111 -3 0
-111 -30 0
-111 -57 0
-111 -84 0
-138 -3 0
-138 -30 0
-138 -57 0
-138 -84 0
-138 -111 0
-165 -3 0
-165 -30 0
-165 -57 0
-165 -84 0
-165 -111 0
-165 -138 0
-192 -3 0
-192 -30 0
-192 -57 0
-192 -84 0
-192 -111 0
-192 -138 0
-192 -165 0
-219 -3 0
-219 -30 0
-219 -57 0
-219 -84 0
-219 -111 0
-219 -138 0
-219 -165 0
-219 -192 0
-246 -3 0
-246 -30 0
-246 -57 0
-246 -84 0
-246 -111 0
-246 -138 0
-246 -165 0
-246 -192 0
-246 -219 0
-273 -3 0
-273 -30 0
-273 -57 0
-273 -84 0
-273 -111 0
-273 -138 0
-273 -165 0
-273 -192 0
-273 -219 0
-273 -246 0
-300 -3 0
-300 -30 0
-300 -57 0
-300 -84 0
-300 -111 0
-300 -138 0
-300 -165 0
-300 -192 0
-300 -219 0
-300 -246 0
-300 -273 0
-327 -3 0
-327 -30 0
-327 -57 0
-327 -84 0
-327 -111 0
-327 -138 0
-327 -165 0
-327 -192 0
-327 -219 0
-327 -246 0
-327 -273 0
-327 -300 0
-354 -3 0
-354 -30 0
-354 -57 0
-354 -84 0
-354 -111 0
-354 -138 0
-354 -165 0
-354 -192 0
-354 -219 0
-354 -246 0
-354 -273 0
-354 -300 0
-354 -327 0
-381 -3 0
-381 -30 0
-381 -57 0
-381 -84 0
-381 -111 0
-381 -138 0
-381 -165 0
-381 -192 0
-381 -219 0
-381 -246 0
-381 -273 0
-381 -300 0
-381 -327 0
-381 -354 0
-31 -4 0
-58 -4 0
-58 -31 0
-85 -4 0
-85 -31 0
-85 -58 0
-112 -4 0
-112 -31 0
-112 -58 0
-112 -85 0
-139 -4 0
-139 -31 0
-139 -58 0
-139 -85 0
-139 -112 0
-166 -4 0
-166 -31 0
-166 -58 0
-166 -85 0
-166 -112 0
-166 -139 0
-193 -4 0
-193 -31 0
-193 -58 0
-193 -85 0
-193 -112 0
-193 -139 0
-193 -166 0
-220 -4 0
-220 -31 0
-220 -58 0
-220 -85 0
-220 -112 0
-220 -139 0
-220 -166 0
-220 -193 0
-247 -4 0
-247 -31 0
-247 -58 0
-247 -85 0
-247 -112 0
-247 -139 0
-247 -166 0
-247 -193 0
-247 -220 0
-274 -4 0
-274 -31 0
-274 -58 0
-274 -85 0
-274 -112 0
-274 -139 0
-274 -166 0
-274 -193 0
-274 -220 0
-274 -247 0
-301 -4 0
-301 -31 0
-301 -58 0
-301 -85 0
-301 -112 0
-301 -139 0
-301 -166 0
-301 -193 0
-301 -220 0
-301 -247 0
-301 -274 0
-328 -4 0
-328 -31 0
-328 -58 0
-328 -85 0
-328 -112 0
-328 -139 0
-328 -166 0
-328 -193 0
-328 -220 0
-328 -247 0
-328 -274 0
-328 -301 0
-355 -4 0
-355 -31 0
-355 -58 0
-355 -85 0
-355 -112 0
-355 -139 0
-355 -166 0
-355 -193 0
-355 -220 0
-355 -247 0
-355 -274 0
-355 -301 0
-355 -328 0
-382 -4 0
-382 -31 0
-382 -58 0
-382 -85 0
-382 -112 0
-382 -139 0
-382 -166 0
-382 -193 0
-382 -220 0
-382 -247 0
-382 -274 0
-382 -301 0
-382 -328 0
-382 -355 0
-32 -5 0
-59 -5 0
-59 -32 0
-86 -5 0
-86 -32 0
-86 -59 0
-113 -5 0
-113 -32 0
-113 -59 0
-113 -86 0
-140 -5 0
-140 -32 0
-140 -59 0
-140 -86 0
-140 -113 0
-167 -5 0
-167 -32 0
-167 -59 0
-167 -86 0
-167 -113 0
-167 -140 0
-194 -5 0
-194 -32 0
-194 -59 0
-194 -86 0
-194 -113 0
-194 -140 0
-194 -167 0
-221 -5 0
-221 -32 0
-221 -59 0
-221 -86 0
-221 -113 0
-221 -140 0
-221 -167 0
-221 -194 0
-248 -5 0
-248 -32 0
-248 -59 0
-248 -86 0
-248 -113 0
-248 -140 0
-248 -167 0
-248 -194 0
-248 -221 0
-275 -5 0
-275 -32 0
-275 -59 0
-275 -86 0
-275 -113 0
-275 -140 0
-275 -167 0
-275 -194 0
-275 -221 0
-275 -248 0
-302 -5 0
-302 -32 0
-302 -59 0
-302 -86 0
-302 -113 0
-302 -140 0
-302 -167 0
-302 -194 0
-302 -221 0
-302 -248 0
-302 -275 0
-329 -5 0
-329 -32 0
-329 -59 0
-329 -86 0
-329 -113 0
-329 -140 0
-329 -167 0
-329 -194 0
-329 -221 0
-329 -248 0
-329 -275 0
-329 -302 0
-356 -5 0
-356 -32 0
-356 -59 0
-356 -86 0
-356 -113 0
-356 -140 0
-356 -167 0
-356 -194 0
-356 -221 0
-356 -248 0
-356 -275 0
-356 -302 0
-356 -329 0
-383 -5 0
-383 -32 0
-383 -59 0
-383 -86 0
-383 -113 0
-383 -140 0
-383 -167 0
-383 -194 0
-383 -221 0
-383 -248 0
-383 -275 0
-383 -302 0
-383 -329 0
-383 -356 0
-33 -6 0
-60 -6 0
-60 -33 0
-87 -6 0
-87 -33 0
-87 -60 0
-114 -6 0
-114 -33 0
-114 -60 0
-114 -87 0
-141 -6 0
-141 -33 0
-141 -60 0
-141 -87 0
-141 -114 0
-168 -6 0
-168 -33 0
-168 -60 0
-168 -87 0
-168 -114 0
-168 -141 0
-195 -6 0
-195 -33 0
-195 -60 0
-195 -87 0
-195 -114 0
-195 -141 0
-195 -168 0
-222 -6 0
-222 -33 0
-222 -60 0
-222 -87 0
-222 -114 0
-222 -141 0
-222 -168 0
-222 -195 0
-249 -6 0
-249 -33 0
-249 -60 0
-249 -87 0
-249 -114 0
-249 -141 0
-249 -168 0
-249 -195 0
-249 -222 0
-276 -6 0
-276 -33 0
-276 -60 0
-276 -87 0
-276 -114 0
-276 -141 0
-276 -168 0
-276 -195 0
-276 -222 0
-276 -249 0
-303 -6 0
-303 -33 0
-303 -60 0
-303 -87 0
-303 -114 0
-303 -141 0
-303 -168 0
-303 -195 0
-303 -222 0
-303 -249 0
-303 -276 0
-330 -6 0
-330 -33 0
-330 -60 0
-330 -87 0
-330 -114 0
-330 -141 0
-330 -168 0
-330 -195 0
-330 -222 0
-330 -249 0
-330 -276 0
-330 -303 0
-357 -6 0
-357 -33 0
-357 -60 0
-357 -87 0
-357 -114 0
-357 -141 0
-357 -168 0
-357 -195 0
-357 -222 0
-357 -249 0
-357 -276 0
-357 -303 0
-357 -330 0
-384 -6 0
-384 -33 0
-384 -60 0
-384 -87 0
-384 -114 0
-384 -141 0
-384 -168 0
-384 -195 0
-384 -222 0
-384 -249 0
-384 -276 0
-384 -303 0
-384 -330 0
-384 -357 0
-34 -7 0
-61 -7 0
-61 -34 0
-88 -7 0
-88 -34 0
-88 -61 0
-115 -7 0
-115 -34 0
-115 -61 0
-115 -88 0
-142 -7 0
-142 -34 0
-142 -61 0
-142 -88 0
-142 -115 0
-169 -7 0
-169 -34 0
-169 -61 0
-169 -88 0
-169 -115 0
-169 -142 0
-196 -7 0
-196 -34 0
-196 -61 0
-196 -88 0
-196 -115 0
-196 -142 0
-196 -169 0
-223 -7 0
-223 -34 0
-223 -61 0
-223 -88 0
-223 -115 0
-223 -142 0
-223 -169 0
-223 -196 0
-250 -7 0
-250 -34 0
-250 -61 0
-250 -88 0
-250 -115 0
-250 -142 0
-250 -169 0
-250 -196 0
-250 -223 0
-277 -7 0
-277 -34 0
-277 -61 0
-277 -88 0
-277 -115 0
-277 -142 0
-277 -169 0
-277 -196 0
-277 -223 0
-277 -250 0
-304 -7 0
-304 -34 0
-304 -61 0
-304 -88 0
-304 -115 0
-304 -142 0
-304 -169 0
-304 -196 0
-304 -223 0
-304 -250 0
-304 -277 0
-331 -7 0
-331 -34 0
-331 -61 0
-331 -88 0
-331 -115 0
-331 -142 0
-331 -169 0
-331 -196 0
-331 -223 0
-331 -250 0
-331 -277 0
-331 -304 0
-358 -7 0
-358 -34 0
-358 -61 0
-358 -88 0
-358 -115 0
-358 -142 0
-358 -169 0
-358 -196 0
-358 -223 0
-358 -250 0
-358 -277 0
-358 -304 0
-358 -331 0
-385 -7 0
-385 -34 0
-385 -61 0
-385 -88 0
-385 -115 0
-385 -142 0
-385 -169 0
-385 -196 0
-385 -223 0
-385 -250 0
-385 -277 0
-385 -304 0
-385 -331 0
-385 -358 0
-35 -8 0
-62 -8 0
-62 -35 0
-89 -8 0
-89 -35 0
-89 -62 0
-116 -8 0
-116 -35 0
-116 -62 0
-116 -89 0
-143 -8 0
-143 -35 0
-143 -62 0
-143 -89 0
-143 -116 0
-170 -8 0
-170 -35 0
-170 -62 0
-170 -89 0
-170 -116 0
-170 -143 0
-197 -8 0
-197 -35 0
-197 -62 0
-197 -89 0
-197 -116 0
-197 -143 0
-197 -170 0
-224 -8 0
-224 -35 0
-224 -62 0
-224 -89 0
-224 -116 0
-224 -143 0
-224 -170 0
-224 -197 0
-251 -8 0
-251 -35 0
-251 -62 0
-251 -89 0
-251 -116 0
-251 -143 0
-251 -170 0
-251 -197 0
-251 -224 0
-278 -8 0
-278 -35 0
-278 -62 0
-278 -89 0
-278 -116 0
-278 -143 0
-278 -170 0
-278 -197 0
-278 -224 0
-278 -251 0
-305 -8 0
-305 -35 0
-305 -62 0
-305 -89 0
-305 -116 0
-305 -143 0
-305 -170 0
-305 -197 0
-305 -224 0
-305 -251 0
-305 -278 0
-332 -8 0
-332 -35 0
-332 -62 0
-332 -89 0
-332 -116 0
-332 -143 0
-332 -170 0
-332 -197 0
-332 -224 0
-332 -251 0
-332 -278 0
-332 -305 0
-359 -8 0
-359 -35 0
-359 -62 0
-359 -89 0
-359 -116 0
-359 -143 0
-359 -170 0
-359 -197 0
-359 -224 0
-359 -251 0
-359 -278 0
-359 -305 0
-359 -332 0
-386 -8 0
-386 -35 0
-386 -62 0
-386 -89 0
-386 -116 0
-386 -143 0
-386 -170 0
-386 -197 0
-386 -224 0
-386 -251 0
-386 -278 0
-386 -305 0
-386 -332 0
-386 -359 0
-36 -9 0
-63 -9 0
-63 -36 0
-90 -9 0
-90 -36 0
-90 -63 0
-117 -9 0
-117 -36 0
-117 -63 0
-117 -90 0
-144 -9 0
-144 -36 0
-144 -63 0
-144 -90 0
-144 -117 0
-171 -9 0
-171 -36 0
-171 -63 0
-171 -90 0
-171 -117 0
-171 -144 0
-198 -9 0
-198 -36 0
-198 -63 0
-198 -90 0
-198 -117 0
-198 -144 0
-198 -171 0
-225 -9 0
-225 -36 0
-225 -63 0
-225 -90 0
-225 -117 0
-225 -144 0
-225 -171 0
-225 -198 0
-252 -9 0
-252 -36 0
-252 -63 0
-252 -90 0
-252 -117 0
-252 -144 0
-252 -171 0
-252 -198 0
-252 -225 0
-279 -9 0
-279 -36 0
-279 -63 0
-279 -90 0
-279 -117 0
-279 -144 0
-279 -171 0
-279 -198 0
-279 -225 0
-279 -252 0
-306 -9 0
-306 -36 0
-306 -63 0
-306 -90 0
-306 -117 0
-306 -144 0
-306 -171 0
-306 -198 0
-306 -225 0
-306 -252 0
-306 -279 0
-333 -9 0
-333 -36 0
-333 -63 0
-333 -90 0
-333 -117 0
-333 -144 0
-333 -171 0
-333 -198 0
-333 -225 0
-333 -252 0
-333 -279 0
-333 -306 0
-360 -9 0
-360 -36 0
-360 -63 0
-360 -90 0
-360 -117 0
-360 -144 0
-360 -171 0
-360 -198 0
-360 -225 0
-360 -252 0
-360 -279 0
-360 -306 0
-360 -333 0
-387 -9 0
-387 -36 0
-387 -63 0
-387 -90 0
-387 -117 0
-387 -144 0
-387 -171 0
-387 -198 0
-387 -225 0
-387 -252 0
-387 -279 0
-387 -306 0
-387 -333 0
-387 -360 0
-37 -10 0
-64 -10 0
-64 -37 0
-91 -10 0
-91 -37 0
-91 -64 0
-118 -10 0
-118 -37 0
-118 -64 0
-118 -91 0
-145 -10 0
-145 -37 0
-145 -64 0
-145 -91 0
-145 -118 0
-172 -10 0
-172 -37 0
-172 -64 0
-172 -91 0
-172 -118 0
-172 -145 0
-199 -10 0
-199 -37 0
-199 -64 0
-199 -91 0
-199 -118 0
-199 -145 0
-199 -172 0
-226 -10 0
-226 -37 0
-226 -64 0
-226 -91 0
-226 -118 0
-226 -145 0
-226 -172 0
-226 -199 0
-253 -10 0
-253 -37 0
-253 -64 0
-253 -91 0
-253 -118 0
-253 -145 0
-253 -172 0
-253 -199 0
-253 -226 0
-280 -10 0
-280 -37 0
-280 -64 0
-280 -91 0
-280 -118 0
-280 -145 0
-280 -172 0
-280 -199 0
-280 -226 0
-280 -253 0
-307 -10 0
-307 -37 0
-307 -64 0
-307 -91 0
-307 -118 0
-307 -145 0
-307 -172 0
-307 -199 0
-307 -226 0
-307 -253 0
-307 -280 0
-334 -10 0
-334 -37 0
-334 -64 0
-334 -91 0
-334 -118 0
-334 -145 0
-334 -172 0
-334 -199 0
-334 -226 0
-334 -253 0
-334 -280 0
-334 -307 0
-361 -10 0
-361 -37 0
-361 -64 0
-361 -91 0
-361 -118 0
-361 -145 0
-361 -172 0
-361 -199 0
-361 -226 0
-361 -253 0
-361 -280 0
-361 -307 0
-361 -334 0
-388 -10 0
-388 -37 0
-388 -64 0
-388 -91 0
-388 -118 0
-388 -145 0
-388 -172 0
-388 -199 0
-388 -226 0
-388 -253 0
-388 -280 0
-388 -307 0
-388 -334 0
-388 -361 0
-38 -11 0
-65 -11 0
-65 -38 0
-92 -11 0
-92 -38 0
-92 -65 0
-119 -11 0
-119 -38 0
-119 -65 0
-119 -92 0
-146 -11 0
-146 -38 0
-146 -65 0
-146 -92 0
-146 -119 0
-173 -11 0
-173 -38 0
-173 -65 0
-173 -92 0
-173 -119 0
-173 -146 0
-200 -11 0
-200 -38 0
-200 -65 0
-200 -92 0
-200 -119 0
-200 -146 0
-200 -173 0
-227 -11 0
-227 -38 0
-227 -65 0
-227 -92 0
-227 -119 0
-227 -146 0
-227 -173 0
-227 -200 0
-254 -11 0
-254 -38 0
-254 -65 0
-254 -92 0
-254 -119 0
-254 -146 0
-254 -173 0
-254 -200 0
-254 -227 0
-281 -11 0
-281 -38 0
-281 -65 0
-281 -92 0
-281 -119 0
-281 -146 0
-281 -173 0
-281 -200 0
-281 -227 0
-281 -254 0
-308 -11 0
-308 -38 0
-308 -65 0
-308 -92 0
-308 -119 0
-308 -146 0
-308 -173 0
-308 -200 0
-308 -227 0
-308 -254 0
-308 -281 0
-335 -11 0
-335 -38 0
-335 -65 0
-335 -92 0
-335 -119 0
-335 -146 0
-335 -173 0
-335 -200 0
-335 -227 0
-335 -254 0
-335 -281 0
-335 -308 0
-362 -11 0
-362 -38 0
-362 -65 0
-362 -92 0
-362 -119 0
-362 -146 0
-362 -173 0
-362 -200 0
-362 -227 0
-362 -254 0
-362 -281 0
-362 -308 0
-362 -335 0
-389 -11 0
-389 -38 0
-389 -65 0
-389 -92 0
-389 -119 0
-389 -146 0
-389 -173 0
-389 -200 0
-389 -227 0
-389 -254 0
-389 -281 0
-389 -308 0
-389 -335 0
-389 -362 0
-39 -12 0
-66 -12 0
-66 -39 0
-93 -12 0
-93 -39 0
-93 -66 0
-120 -12 0
-120 -39 0
-120 -66 0
-120 -93 0
-147 -12 0
-147 -39 0
-147 -66 0
-147 -93 0
-147 -120 0
-174 -12 0
-174 -39 0
-174 -66 0
-174 -93 0
-174 -120 0
-174 -147 0
-201 -12 0
-201 -39 0
-201 -66 0
-201 -93 0
-201 -120 0
-201 -147 0
-201 -174 0
-228 -12 0
-228 -39 0
-228 -66 0
-228 -93 0
-228 -120 0
-228 -147 0
-228 -174 0
-228 -201 0
-255 -12 0
-255 -39 0
-255 -66 0
-255 -93 0
-255 -120 0
-255 -147 0
-255 -174 0
-255 -201 0
-255 -228 0
-282 -12 0
-282 -39 0
-282 -66 0
-282 -93 0
-282 -120 0
-282 -147 0
-282 -174 0
-282 -201 0
-282 -228 0
-282 -255 0
-309 -12 0
-309 -39 0
-309 -66 0
-309 -93 0
-309 -120 0
-309 -147 0
-309 -174 0
-309 -201 0
-309 -228 0
-309 -255 0
-309 -282 0
-336 -12 0
-336 -39 0
-336 -66 0
-336 -93 0
-336 -120 0
-336 -147 0
-336 -174 0
-336 -201 0
-336 -228 0
-336 -255 0
-336 -282 0
-336 -309 0
-363 -12 0
-363 -39 0
-363 -66 0
-363 -93 0
-363 -120 0
-363 -147 0
-363 -174 0
-363 -201 0
-363 -228 0
-363 -255 0
-363 -282 0
-363 -309 0
-363 -336 0
-390 -12 0
-390 -39 0
-390 -66 0
-390 -93 0
-390 -120 0
-390 -147 0
-390 -174 0
-390 -201 0
-390 -228 0
-390 -255 0
-390 -282 0
-390 -309 0
-390 -336 0
-390 -363 0
-40 -13 0
-67 -13 0
-67 -40 0
-94 -13 0
-94 -40 0
-94 -67 0
-121 -13 0
-121 -40 0
-121 -67 0
-121 -94 0
-148 -13 0
-148 -40 0
-148 -67 0
-148 -94 0
-148 -121 0
-175 -13 0
-175 -40 0
-175 -67 0
-175 -94 0
-175 -121 0
-175 -148 0
-202 -13 0
-202 -40 0
-202 -67 0
-202 -94 0
-202 -121 0
-202 -148 0
-202 -175 0
-229 -13 0
-229 -40 0
-229 -67 0
-229 -94 0
-229 -121 0
-229 -148 0
-229 -175 0
-229 -202 0
-256 -13 0
-256 -40 0
-256 -67 0
-256 -94 0
-256 -121 0
-256 -148 0
-256 -175 0
-256 -202 0
-256 -229 0
-283 -13 0
-283 -40 0
-283 -67 0
-283 -94 0
-283 -121 0
-283 -148 0
-283 -175 0
-283 -202 0
-283 -229 0
-283 -256 0
-310 -13 0
-310 -40 0
-310 -67 0
-310 -94 0
-310 -121 0
-310 -148 0
-310 -175 0
-310 -202 0
-310 -229 0
-310 -256 0
-310 -283 0
-337 -13 0
-337 -40 0
-337 -67 0
-337 -94 0
-337 -121 0
-337 -148 0
-337 -175 0
-337 -202 0
-337 -229 0
-337 -256 0
-337 -283 0
-337 -310 0
-364 -13 0
-364 -40 0
-364 -67 0
-364 -94 0
-364 -121 0
-364 -148 0
-364 -175 0
-364 -202 0
-364 -229 0
-364 -256 0
-364 -283 0
-364 -310 0
-364 -337 0
-391 -13 0
-391 -40 0
-391 -67 0
-391 -94 0
-391 -121 0
-391 -148 0
-391 -175 0
-391 -202 0
-391 -229 0
-391 -256 0
-391 -283 0
-391 -310 0
-391 -337 0
-391 -364 0
-41 -14 0
-68 -14 0
-68 -41 0
-95 -14 0
-95 -41 0
-95 -68 0
-122 -14 0
-122 -41 0
-122 -68 0
-122 -95 0
-149 -14 0
-149 -41 0
-149 -68 0
-149 -95 0
-149 -122 0
-176 -14 0
-176 -41 0
-176 -68 0
-176 -95 0
-176 -122 0
-176 -149 0
-203 -14 0
-203 -41 0
-203 -68 0
-203 -95 0
-203 -122 0
-203 -149 0
-203 -176 0
-230 -14 0
-230 -41 0
-230 -68 0
-230 -95 0
-230 -122 0
-230 -149 0
-230 -176 0
-230 -203 0
-257 -14 0
-257 -41 0
-257 -68 0
-257 -95 0
-257 -122 0
-257 -149 0
-257 -176 0
-257 -203 0
-257 -230 0
-284 -14 0
-284 -41 0
-284 -68 0
-284 -95 0
-284 -122 0
-284 -149 0
-284 -176 0
-284 -203 0
-284 -230 0
-284 -257 0
-311 -14 0
-311 -41 0
-311 -68 0
-311 -95 0
-311 -122 0
-311 -149 0
-311 -176 0
-311 -203 0
-311 -230 0
-311 -257 0
-311 -284 0
-338 -14 0
-338 -41 0
-338 -68 0
-338 -95 0
-338 -122 0
-338 -149 0
-338 -176 0
-338 -203 0
-338 -230 0
-338 -257 0
-338 -284 0
-338 -311 0
-365 -14 0
-365 -41 0
-365 -68 0
-365 -95 0
-365 -122 0
-365 -149 0
-365 -176 0
-365 -203 0
-365 -230 0
-365 -257 0
-365 -284 0
-365 -311 0
-365 -338 0
-392 -14 0
-392 -41 0
-392 -68 0
-392 -95 0
-392 -122 0
-392 -149 0
-392 -176 0
-392 -203 0
-392 -230 0
-392 -257 0
-392 -284 0
-392 -311 0
-392 -338 0
-392 -365 0
